problems/csplib-prob031/RackConfiguration-models/noch/O2/minion/model_2-ilog-solution000001.eprime-solution
language ESSENCE' 1.0

letting model_Function1DPartial_Flags be [false, false, false, true, true; int(1..5)]
letting model_Function1DPartial_Values be [1, 1, 1, 1, 2; int(1..5)]
letting plugged_Function1DPartialR6_Flags be [false, false, false, true, true; int(1..5)]
letting plugged_Function1DPartialR6_Values_ExplicitVarSizeWithDummy be
        [[1, 1, 1, 1; int(1..4)], [1, 1, 1, 1; int(1..4)], [1, 1, 1, 1; int(1..4)], [1, 3, 5, 5; int(1..4)],
         [2, 4, 5, 5; int(1..4)];
             int(1..5)]
